
Gurobi 8.1.0 (linux64, Python) logging started Sat Mar 30 17:50:44 2019

Academic license - for non-commercial use only

Gurobi 8.1.0 (linux64, Python) logging started Sat Mar 30 18:00:49 2019

Academic license - for non-commercial use only

Gurobi 8.1.0 (linux64, Python) logging started Sat Mar 30 18:01:19 2019

Academic license - for non-commercial use only

Gurobi 8.1.0 (linux64, Python) logging started Sat Mar 30 18:03:51 2019

Academic license - for non-commercial use only

Gurobi 8.1.0 (linux64, Python) logging started Sat Mar 30 18:05:05 2019

Academic license - for non-commercial use only

Gurobi 8.1.0 (linux64, Python) logging started Sat Mar 30 18:05:58 2019

Academic license - for non-commercial use only
